r = [
0,18,8,50,61,23,52,2,54,20,8,0
];
p = [
0,15,21,10,13,11,14,9,11,7,28,0
];
e = [
0,10,14,6,8,19,11,9,15,2,12,0
];
d = [
0,82,83,119,133,91,117,77,123,96,76,134
];
d_bar = [
0,84,85,120,134,92,118,78,124,97,79,134
];
w = [
0,5,7,6,8,19,11,9,15,2,4,0
];
